p = 10;
s = 5;
b = 2;
c = 10;
t = 5;
g = 2;
graph = [| 1,1,1,1,1
	| 0,0,1,1,1
	| 1,0,1,0,0
	| 0,0,0,0,1
	| 1,0,0,1,1
	| 1,1,0,0,0
	| 0,1,0,0,0
	| 1,0,1,0,1
	| 0,0,1,1,0
	| 1,1,1,0,1
	|];
groups = [
	{2,3},{1,6,9,8}
]